
n_res = 6;
rcap = [81, 80, 107, 105, 886, 824];
rtype = [1, 1, 1, 1, 2, 2];
n_tasks = 50;
modes =  [{1, 2, 3, 4, 5, 6}, {7, 8, 9, 10, 11, 12}, {13, 14, 15, 16, 17, 18}, {19, 20, 21, 22, 23, 24}, {25, 26, 27, 28, 29, 30}, {31, 32, 33, 34, 35, 36}, {37, 38, 39, 40, 41, 42}, {43, 44, 45, 46, 47, 48}, {49, 50, 51, 52, 53, 54}, {55, 56, 57, 58, 59, 60}, {61, 62, 63, 64, 65, 66}, {67, 68, 69, 70, 71, 72}, {73, 74, 75, 76, 77, 78}, {79, 80, 81, 82, 83, 84}, {85, 86, 87, 88, 89, 90}, {91, 92, 93, 94, 95, 96}, {97, 98, 99, 100, 101, 102}, {103, 104, 105, 106, 107, 108}, {109, 110, 111, 112, 113, 114}, {115, 116, 117, 118, 119, 120}, {121, 122, 123, 124, 125, 126}, {127, 128, 129, 130, 131, 132}, {133, 134, 135, 136, 137, 138}, {139, 140, 141, 142, 143, 144}, {145, 146, 147, 148, 149, 150}, {151, 152, 153, 154, 155, 156}, {157, 158, 159, 160, 161, 162}, {163, 164, 165, 166, 167, 168}, {169, 170, 171, 172, 173, 174}, {175, 176, 177, 178, 179, 180}, {181, 182, 183, 184, 185, 186}, {187, 188, 189, 190, 191, 192}, {193, 194, 195, 196, 197, 198}, {199, 200, 201, 202, 203, 204}, {205, 206, 207, 208, 209, 210}, {211, 212, 213, 214, 215, 216}, {217, 218, 219, 220, 221, 222}, {223, 224, 225, 226, 227, 228}, {229, 230, 231, 232, 233, 234}, {235, 236, 237, 238, 239, 240}, {241, 242, 243, 244, 245, 246}, {247, 248, 249, 250, 251, 252}, {253, 254, 255, 256, 257, 258}, {259, 260, 261, 262, 263, 264}, {265, 266, 267, 268, 269, 270}, {271, 272, 273, 274, 275, 276}, {277, 278, 279, 280, 281, 282}, {283, 284, 285, 286, 287, 288}, {289, 290, 291, 292, 293, 294}, {295, 296, 297, 298, 299, 300}];
succ =  [{11, 9, 4}, {11, 9, 4}, {16, 12, 8, 7}, {16, 12, 10, 8}, {16, 11, 7}, {17, 14, 13, 12}, {15, 14, 10}, {17, 14, 13}, {18, 15, 14}, {22, 20, 18, 17}, {22, 20, 18, 17}, {22, 18, 15}, {22, 15}, {25, 22, 20, 19}, {25, 20, 19}, {22, 21, 18}, {25, 23, 21, 19}, {42, 34, 31, 28, 25, 24, 23}, {42, 36, 34, 31, 29, 28, 26, 24}, {23, 21}, {37, 36, 35, 32, 31, 30, 27}, {42, 37, 36, 34, 30, 29, 27}, {37, 36, 29, 27, 26}, {35, 30, 27}, {38, 36, 35, 29}, {41, 39, 35, 33}, {44, 41, 40, 39, 33}, {43, 40, 39, 37}, {50, 41, 40, 39}, {45, 44, 43, 38}, {45, 43, 41, 38}, {45, 43, 40, 38}, {45, 43, 38}, {45, 43, 38}, {45, 44, 40}, {45, 43, 41}, {44, 41}, {50, 49, 48, 46}, {48, 45}, {49, 48, 47}, {48, 46}, {49, 46}, {50, 47}, {49, 48}, {46}, {47}, {}, {}, {}, {}];
n_opt = 300;
dur = [12, 14, 15, 16, 21, 29, 12, 20, 21, 22, 23, 28, 11, 17, 20, 25, 26, 27, 2, 11, 17, 23, 28, 30, 1, 11, 19, 20, 26, 28, 3, 7, 13, 14, 23, 30, 9, 16, 18, 26, 27, 28, 7, 8, 9, 10, 14, 19, 7, 8, 22, 23, 24, 30, 2, 8, 16, 24, 27, 30, 1, 6, 7, 9, 15, 16, 5, 13, 17, 21, 26, 29, 3, 4, 7, 15, 19, 25, 1, 6, 15, 16, 18, 25, 7, 8, 15, 20, 21, 30, 5, 14, 15, 16, 23, 24, 7, 8, 18, 24, 29, 30, 5, 14, 27, 28, 29, 30, 4, 13, 15, 16, 26, 30, 10, 11, 16, 21, 27, 28, 2, 4, 14, 22, 25, 26, 20, 21, 22, 23, 24, 25, 4, 6, 7, 8, 17, 18, 7, 13, 15, 18, 21, 22, 11, 13, 14, 24, 25, 30, 1, 4, 5, 14, 19, 23, 5, 11, 15, 16, 28, 30, 7, 15, 17, 19, 23, 28, 19, 23, 24, 25, 27, 30, 17, 22, 23, 25, 26, 28, 1, 17, 19, 24, 27, 29, 2, 3, 9, 16, 29, 30, 9, 12, 13, 21, 25, 28, 2, 15, 18, 22, 27, 30, 12, 16, 20, 22, 23, 25, 8, 9, 10, 11, 13, 16, 1, 2, 3, 14, 24, 26, 3, 5, 7, 13, 16, 17, 8, 18, 25, 27, 28, 29, 15, 16, 18, 21, 25, 27, 6, 11, 18, 22, 23, 29, 2, 3, 20, 23, 24, 25, 2, 3, 7, 15, 16, 23, 1, 4, 7, 26, 28, 29, 1, 8, 13, 17, 23, 24, 3, 4, 11, 13, 23, 27, 2, 11, 18, 20, 22, 29, 1, 3, 11, 12, 16, 25, 2, 9, 10, 14, 15, 19, 10, 12, 14, 15, 25, 28];
rreq = [|26, 22, 22, 19, 18, 15, 25, 21, 17, 14, 13, 7, 20, 20, 20, 20, 20, 20, 25, 25, 25, 24, 24, 24, 19, 19, 14, 9, 6, 5, 14, 12, 11, 10, 8, 6, 8, 8, 7, 7, 7, 6, 22, 21, 17, 14, 9, 5, 24, 18, 16, 15, 7, 5, 22, 21, 17, 14, 9, 6, 25, 23, 21, 19, 18, 16, 9, 9, 6, 5, 5, 3, 20, 14, 13, 10, 7, 5, 16, 14, 11, 10, 10, 8, 22, 22, 20, 19, 15, 14, 22, 20, 15, 14, 11, 7, 12, 9, 8, 6, 6, 3, 25, 23, 23, 22, 22, 21, 29, 21, 16, 15, 9, 8, 16, 15, 14, 13, 11, 11, 19, 17, 16, 12, 11, 9, 9, 9, 9, 8, 8, 8, 7, 7, 7, 7, 7, 7, 23, 22, 22, 20, 19, 19, 16, 14, 10, 10, 5, 2, 21, 20, 20, 20, 20, 20, 6, 6, 6, 6, 6, 6, 10, 10, 10, 9, 9, 8, 15, 14, 13, 12, 12, 11, 24, 22, 18, 18, 16, 13, 28, 28, 28, 27, 26, 26, 10, 10, 8, 8, 6, 6, 16, 15, 12, 10, 8, 7, 19, 19, 19, 18, 17, 17, 13, 10, 9, 9, 8, 7, 23, 22, 18, 16, 11, 9, 12, 12, 11, 11, 10, 9, 25, 24, 21, 20, 16, 15, 29, 23, 20, 16, 11, 10, 26, 26, 25, 24, 23, 23, 29, 29, 27, 27, 25, 25, 13, 11, 11, 10, 7, 5, 19, 18, 16, 12, 12, 8, 8, 8, 6, 6, 5, 3, 20, 19, 19, 19, 17, 17, 18, 15, 15, 13, 13, 12, 16, 15, 14, 13, 11, 11, 28, 25, 24, 20, 18, 16, 17, 14, 11, 9, 4, 2, 13, 12, 12, 11, 10, 8
 |16, 15, 13, 12, 12, 11, 23, 23, 22, 22, 22, 21, 14, 14, 14, 14, 14, 14, 29, 28, 27, 25, 23, 23, 20, 17, 15, 12, 11, 10, 17, 14, 12, 10, 8, 8, 4, 4, 4, 4, 4, 4, 7, 6, 6, 4, 2, 1, 15, 13, 11, 10, 9, 7, 21, 18, 16, 14, 13, 12, 19, 15, 13, 12, 11, 8, 17, 15, 14, 12, 12, 11, 20, 16, 16, 14, 11, 8, 26, 26, 24, 24, 22, 22, 8, 8, 8, 8, 8, 8, 28, 20, 20, 14, 10, 5, 18, 17, 14, 9, 5, 4, 19, 18, 17, 16, 16, 15, 9, 8, 8, 7, 5, 5, 20, 14, 10, 8, 7, 4, 23, 23, 22, 21, 21, 20, 26, 22, 20, 17, 15, 12, 19, 17, 15, 14, 11, 9, 20, 20, 18, 17, 17, 15, 15, 13, 9, 7, 4, 3, 5, 5, 5, 4, 4, 3, 7, 5, 4, 3, 3, 2, 22, 20, 18, 15, 12, 10, 26, 23, 19, 16, 16, 12, 17, 16, 16, 16, 16, 16, 8, 8, 8, 7, 7, 7, 9, 8, 8, 6, 5, 5, 20, 18, 16, 14, 14, 11, 20, 20, 20, 20, 20, 20, 27, 27, 23, 22, 19, 18, 13, 13, 12, 12, 11, 10, 23, 21, 18, 18, 15, 13, 20, 18, 15, 15, 14, 11, 27, 25, 23, 23, 21, 17, 26, 19, 17, 15, 9, 5, 23, 21, 20, 19, 18, 18, 20, 18, 16, 13, 12, 8, 6, 4, 4, 4, 3, 2, 26, 26, 25, 22, 22, 19, 24, 24, 23, 23, 22, 22, 3, 2, 2, 1, 1, 1, 19, 14, 10, 9, 4, 2, 27, 25, 25, 25, 24, 23, 8, 8, 8, 8, 8, 8, 26, 26, 26, 26, 26, 26
 |4, 3, 3, 2, 1, 1, 6, 5, 4, 4, 3, 3, 23, 23, 22, 22, 22, 21, 20, 19, 15, 14, 9, 9, 16, 16, 15, 15, 14, 14, 30, 28, 28, 27, 25, 24, 27, 21, 18, 14, 11, 7, 26, 25, 23, 22, 18, 17, 13, 13, 12, 10, 8, 7, 17, 13, 12, 9, 7, 7, 27, 20, 17, 13, 13, 9, 29, 27, 27, 26, 24, 23, 15, 14, 14, 14, 14, 14, 17, 17, 17, 17, 17, 17, 5, 5, 5, 4, 3, 3, 28, 26, 25, 25, 22, 21, 21, 20, 17, 16, 12, 10, 14, 13, 11, 8, 6, 4, 14, 12, 12, 10, 9, 9, 26, 24, 19, 14, 8, 6, 15, 14, 14, 13, 13, 13, 22, 20, 16, 12, 8, 5, 26, 24, 23, 21, 17, 17, 22, 20, 18, 16, 11, 11, 12, 11, 8, 8, 5, 3, 23, 22, 20, 17, 14, 14, 28, 23, 21, 18, 16, 11, 17, 16, 12, 11, 7, 4, 16, 16, 15, 14, 14, 13, 18, 18, 16, 13, 11, 11, 21, 21, 20, 20, 18, 18, 16, 12, 10, 8, 6, 2, 27, 27, 27, 27, 27, 27, 26, 21, 18, 17, 12, 10, 24, 24, 24, 24, 23, 23, 29, 27, 25, 25, 23, 21, 21, 18, 17, 14, 13, 11, 30, 27, 23, 19, 17, 14, 18, 16, 14, 12, 9, 9, 10, 8, 5, 4, 4, 2, 19, 19, 18, 17, 17, 16, 23, 23, 19, 18, 15, 12, 25, 20, 16, 11, 8, 2, 16, 13, 12, 9, 7, 7, 27, 22, 18, 17, 11, 11, 26, 23, 21, 18, 13, 10, 28, 24, 18, 14, 14, 8, 16, 16, 16, 16, 15, 15, 22, 20, 19, 18, 18, 17, 25, 24, 24, 24, 23, 22
 |20, 17, 14, 12, 11, 9, 28, 26, 26, 25, 25, 24, 7, 6, 5, 5, 4, 4, 9, 8, 8, 8, 8, 8, 27, 23, 22, 16, 16, 11, 19, 18, 16, 15, 14, 14, 25, 22, 17, 17, 10, 9, 14, 14, 12, 10, 10, 9, 5, 5, 5, 5, 5, 5, 17, 12, 10, 7, 5, 4, 13, 12, 9, 7, 5, 4, 19, 18, 15, 15, 11, 10, 22, 17, 12, 9, 6, 2, 23, 19, 19, 14, 11, 8, 23, 21, 17, 17, 12, 11, 26, 23, 22, 20, 19, 17, 29, 22, 19, 16, 12, 6, 27, 23, 21, 16, 15, 11, 25, 18, 13, 9, 6, 4, 17, 17, 17, 17, 17, 17, 29, 28, 27, 26, 25, 24, 8, 7, 7, 7, 6, 6, 21, 19, 17, 17, 16, 14, 13, 13, 13, 13, 13, 13, 20, 20, 20, 20, 20, 20, 19, 19, 18, 17, 15, 14, 26, 23, 18, 17, 14, 11, 11, 10, 10, 9, 9, 8, 20, 17, 16, 12, 10, 9, 15, 15, 14, 13, 11, 11, 15, 11, 9, 7, 7, 5, 21, 21, 20, 17, 15, 15, 21, 18, 17, 15, 11, 9, 23, 23, 23, 22, 22, 22, 28, 27, 27, 26, 26, 26, 27, 25, 24, 21, 21, 18, 27, 26, 26, 26, 26, 26, 11, 11, 11, 11, 11, 11, 18, 18, 13, 10, 9, 5, 29, 20, 15, 11, 8, 1, 23, 22, 21, 21, 19, 19, 25, 25, 23, 22, 19, 18, 5, 4, 4, 4, 4, 4, 18, 17, 15, 11, 9, 6, 24, 21, 18, 15, 11, 8, 26, 26, 24, 23, 19, 19, 22, 21, 21, 21, 21, 21, 6, 5, 5, 5, 5, 5, 25, 20, 19, 13, 12, 8, 12, 12, 12, 11, 11, 11
 |27, 24, 23, 18, 12, 12, 24, 21, 19, 13, 13, 10, 16, 15, 15, 14, 13, 13, 15, 15, 15, 14, 14, 13, 28, 26, 26, 23, 23, 21, 16, 16, 12, 9, 8, 5, 21, 17, 17, 12, 11, 8, 15, 14, 13, 12, 12, 11, 25, 21, 18, 17, 13, 11, 24, 21, 18, 17, 13, 9, 1, 1, 1, 1, 1, 1, 26, 22, 16, 11, 10, 5, 5, 4, 4, 3, 1, 1, 19, 19, 16, 16, 13, 13, 27, 24, 21, 19, 14, 12, 24, 22, 20, 20, 19, 18, 23, 22, 16, 10, 9, 5, 28, 27, 26, 25, 24, 23, 22, 20, 17, 15, 15, 13, 30, 27, 25, 24, 24, 21, 20, 20, 20, 20, 20, 20, 29, 21, 19, 12, 11, 7, 29, 25, 19, 16, 15, 11, 22, 21, 21, 20, 20, 20, 17, 15, 15, 12, 12, 10, 24, 22, 22, 21, 19, 18, 10, 10, 10, 9, 9, 8, 16, 13, 11, 10, 5, 3, 22, 21, 19, 18, 17, 16, 26, 24, 22, 19, 17, 15, 7, 5, 5, 4, 4, 3, 17, 16, 16, 16, 16, 16, 13, 13, 13, 13, 12, 12, 11, 8, 8, 6, 6, 4, 14, 14, 10, 10, 6, 6, 23, 23, 23, 22, 22, 21, 29, 28, 27, 24, 24, 23, 26, 25, 20, 16, 15, 12, 24, 20, 19, 17, 14, 14, 12, 10, 10, 8, 7, 7, 4, 4, 3, 3, 2, 1, 26, 22, 18, 13, 12, 6, 15, 14, 13, 11, 11, 10, 19, 16, 16, 15, 13, 12, 15, 12, 9, 7, 7, 4, 25, 24, 23, 23, 21, 20, 5, 5, 5, 5, 4, 4, 20, 20, 17, 17, 13, 12, 24, 24, 22, 21, 20, 20, 27, 26, 25, 25, 25, 24
 |22, 19, 18, 17, 16, 14, 16, 14, 10, 10, 6, 2, 23, 21, 21, 20, 19, 19, 17, 12, 10, 10, 6, 2, 28, 26, 25, 25, 22, 21, 13, 13, 12, 10, 10, 9, 22, 19, 18, 17, 13, 12, 22, 22, 20, 18, 15, 14, 24, 23, 20, 16, 13, 12, 26, 24, 23, 22, 21, 20, 11, 10, 10, 9, 8, 8, 17, 14, 13, 11, 9, 8, 12, 11, 9, 8, 4, 3, 17, 13, 12, 9, 4, 1, 18, 16, 12, 11, 10, 6, 19, 15, 15, 12, 10, 7, 25, 22, 22, 21, 19, 17, 21, 17, 17, 11, 10, 7, 10, 10, 10, 10, 9, 9, 20, 18, 16, 15, 13, 9, 15, 14, 13, 10, 10, 8, 18, 18, 17, 16, 16, 15, 17, 14, 10, 6, 4, 2, 26, 20, 19, 16, 11, 6, 24, 21, 19, 13, 9, 6, 17, 16, 16, 16, 14, 14, 28, 25, 22, 21, 18, 16, 22, 21, 20, 18, 16, 15, 3, 3, 3, 3, 3, 3, 16, 13, 10, 9, 3, 1, 13, 11, 10, 8, 7, 5, 26, 25, 25, 25, 25, 25, 27, 22, 21, 18, 16, 14, 12, 11, 10, 10, 9, 9, 22, 19, 17, 14, 11, 7, 10, 9, 7, 6, 3, 2, 22, 21, 19, 18, 18, 16, 24, 17, 15, 11, 8, 4, 9, 7, 5, 5, 2, 1, 2, 2, 2, 2, 2, 2, 21, 18, 16, 10, 8, 6, 30, 28, 27, 26, 26, 24, 27, 25, 23, 19, 18, 16, 21, 19, 17, 14, 11, 10, 22, 18, 17, 14, 11, 10, 14, 13, 13, 13, 12, 11, 19, 14, 12, 8, 7, 3, 10, 9, 7, 6, 6, 5, 24, 23, 22, 19, 19, 17, 15, 14, 11, 10, 7, 6|];